\ Model ajuste
\ LP format - for model browsing. Use MPS format to capture full model detail.
\ Signature: 0xc60ddf5a1d6698dd
Minimize
  - 1.6041334175709742e+06 coef_ajuste + 801791.7296367784 Constant + [
   1.6046835644797962e+06 coef_ajuste ^2 ] / 2 
Subject To
Bounds
 coef_ajuste <= 1
 Constant = 1
End
